
%FILE DATA:	Soccer Computational Problem for MiniZinc Models	%
%AUTHOR:	Jack Wall	%
%CONTACT:  	116397063@umail.ucc.ie			%
%LAST UPDATE:	03/16/2020, 13:59:12						%
%DESCRIPTION: 	147 games played with 35 games left				%


n=14; %number of teams

%Games to play
games=[|12,11|9,2|6,8|4,9|5,2|8,14|12,5|10,7|8,3|12,10|10,2|7,12|10,3|3,9|13,1|9,1|5,12|10,6|2,5|13,3|9,6|7,14|4,2|13,4|1,13|8,6|5,8|5,4|11,12|9,10|13,5|4,11|1,3|1,14|11,7|];

%Initial points
iPoints=[20,33,22,21,26,33,37,30,24,28,32,33,28,30];

%POSITION CONSTRAINTS
% [|teamID, operator, position|...]
% operators index:
%  1 for =  operator
%  2 for >  operator
%  3 for >= operator
%  4 for <  operator
%  5 for <= operator
positionConstraints=[|7,3,1|5,5,2|];